(declare-fun $V170_X$2 () Bool)
(declare-fun $V175_Sofar$~1 () Bool)
(declare-fun $e11$0 () Bool)
(declare-fun $V175_Sofar$2 () Bool)
(declare-fun $e10$0 () Bool)
(declare-fun $e12$0 () Bool)
(declare-fun $e06$0 () Bool)
(declare-fun $e09$0 () Bool)
(declare-fun $e02$0 () Bool)
(declare-fun $e07$0 () Bool)
(declare-fun $e04$0 () Bool)
(declare-fun $e05$0 () Bool)
(declare-fun $e01$0 () Bool)
(declare-fun $V76_erreur$2 () Bool)
(declare-fun $e08$0 () Bool)
(declare-fun $e03$0 () Bool)
(declare-fun %init () Bool)
(declare-fun $OK$2 () Bool)

(assert (let ((a!1 (and (and (and (not $e01$0) (not $e02$0)) (not $e03$0)) (not $e04$0)))
      (a!4 (and (not $e12$0)
                (not $e11$0)
                (not $e10$0)
                (not $e09$0)
                (not $e08$0)
                (not $e07$0)
                (not $e06$0)
                (not $e05$0)
                (and (and (not $e01$0) (not $e02$0)) (not $e03$0))
                $e04$0)))
(let ((a!2 (and (and (and a!1 (not $e05$0)) (not $e06$0)) (not $e07$0)))
      (a!5 (and (not $e12$0)
                (not $e11$0)
                (not $e10$0)
                (not $e09$0)
                (not $e08$0)
                (and (and a!1 (not $e05$0)) (not $e06$0))
                $e07$0)))
(let ((a!3 (and (and (and a!2 (not $e08$0)) (not $e09$0)) (not $e10$0)))
      (a!6 (and (not $e12$0)
                (not $e11$0)
                (and (and a!2 (not $e08$0)) (not $e09$0))
                $e10$0)))
(let ((a!7 (or (and (and a!3 (not $e11$0)) $e12$0)
               (and (and a!3 (not $e11$0)) (not $e12$0))
               (and (not $e12$0)
                    (not $e11$0)
                    (not $e10$0)
                    (not $e09$0)
                    (not $e08$0)
                    (not $e07$0)
                    (not $e06$0)
                    (not $e05$0)
                    (not $e04$0)
                    (not $e03$0)
                    $e01$0
                    (not $e02$0))
               (and (not $e12$0)
                    (not $e11$0)
                    (not $e10$0)
                    (not $e09$0)
                    (not $e08$0)
                    (not $e07$0)
                    (not $e06$0)
                    (not $e05$0)
                    (not $e04$0)
                    (not $e03$0)
                    (not $e01$0)
                    $e02$0)
               (and (not $e12$0)
                    (not $e11$0)
                    (not $e10$0)
                    (not $e09$0)
                    (not $e08$0)
                    (not $e07$0)
                    (not $e06$0)
                    (not $e05$0)
                    (not $e04$0)
                    (and (not $e01$0) (not $e02$0))
                    $e03$0)
               a!4
               (and (not $e12$0)
                    (not $e11$0)
                    (not $e10$0)
                    (not $e09$0)
                    (not $e08$0)
                    (not $e07$0)
                    (not $e06$0)
                    a!1
                    $e05$0)
               (and (not $e12$0)
                    (not $e11$0)
                    (not $e10$0)
                    (not $e09$0)
                    (not $e08$0)
                    (not $e07$0)
                    (and a!1 (not $e05$0))
                    $e06$0)
               a!5
               (and (not $e12$0)
                    (not $e11$0)
                    (not $e10$0)
                    (not $e09$0)
                    a!2
                    $e08$0)
               (and (not $e12$0)
                    (not $e11$0)
                    (not $e10$0)
                    (and a!2 (not $e08$0))
                    $e09$0)
               a!6
               (and (not $e12$0) a!3 $e11$0))))
(let ((a!8 (or (not (ite %init a!7 (and a!7 $V175_Sofar$~1))) (not false))))
  (and (= $OK$2 a!8)
       (= $V175_Sofar$2 (ite %init a!7 (and a!7 $V175_Sofar$~1)))
       (= $V76_erreur$2 false)
       (= $V170_X$2 a!7))))))))
(check-sat)
